(set-logic QF_S)
(declare-fun var0 () String)
(assert (str.in.re var0 (re.++ (re.union (re.inter (re.union (re.inter (re.union (re.inter (re.union (str.to.re "00") (str.to.re "11")) (re.union (str.to.re "2") (str.to.re "33"))) (re.inter (re.union (str.to.re "444") (str.to.re "55")) (re.union (str.to.re "66") (str.to.re "77")))) (re.union (re.inter (re.union (str.to.re "88") (str.to.re "99")) (re.union (str.to.re "aaa") (str.to.re "b"))) (re.inter (re.union (str.to.re "ccc") (str.to.re "d")) (re.union (str.to.re "ee") (str.to.re "f"))))) (re.inter (re.union (re.inter (re.union (str.to.re "g") (str.to.re "hhh")) (re.union (str.to.re "ii") (str.to.re "jjj"))) (re.inter (re.union (str.to.re "kkk") (str.to.re "lll")) (re.union (str.to.re "m") (str.to.re "nn")))) (re.union (re.inter (re.union (str.to.re "o") (str.to.re "ppp")) (re.union (str.to.re "q") (str.to.re "rrr"))) (re.inter (re.union (str.to.re "ss") (str.to.re "tt")) (re.union (str.to.re "uuu") (str.to.re "v")))))) (re.union (re.inter (re.union (re.inter (re.union (str.to.re "ww") (str.to.re "xx")) (re.union (str.to.re "yy") (str.to.re "zzz"))) (re.inter (re.union (str.to.re "AAA") (str.to.re "B")) (re.union (str.to.re "CCC") (str.to.re "DD")))) (re.union (re.inter (re.union (str.to.re "EE") (str.to.re "FFF")) (re.union (str.to.re "GG") (str.to.re "H"))) (re.inter (re.union (str.to.re "III") (str.to.re "J")) (re.union (str.to.re "K") (str.to.re "LLL"))))) (re.inter (re.union (re.inter (re.union (str.to.re "MM") (str.to.re "NNN")) (re.union (str.to.re "OOO") (str.to.re "PPP"))) (re.inter (re.union (str.to.re "Q") (str.to.re "RRR")) (re.union (str.to.re "SS") (str.to.re "TT")))) (re.union (re.inter (re.union (str.to.re "U") (str.to.re "VVV")) (re.union (str.to.re "WW") (str.to.re "XXX"))) (re.inter (re.union (str.to.re "Y") (str.to.re "Z")) (re.union (str.to.re "!!!") (str.to.re "'"))))))) (re.inter (re.union (re.inter (re.union (re.inter (re.union (str.to.re "#") (str.to.re "$")) (re.union (str.to.re "%%%") (str.to.re "&&"))) (re.inter (re.union (str.to.re "'") (str.to.re "(")) (re.union (str.to.re "))") (str.to.re "***")))) (re.union (re.inter (re.union (str.to.re "++") (str.to.re ",")) (re.union (str.to.re "--") (str.to.re "..."))) (re.inter (re.union (str.to.re "//") (str.to.re ":::")) (re.union (str.to.re ";") (str.to.re "<<<"))))) (re.inter (re.union (re.inter (re.union (str.to.re "==") (str.to.re ">>>")) (re.union (str.to.re "?") (str.to.re "@@@"))) (re.inter (re.union (str.to.re "[[[") (str.to.re "\\\\\\")) (re.union (str.to.re "]]") (str.to.re "^^")))) (re.union (re.inter (re.union (str.to.re "_") (str.to.re "```")) (re.union (str.to.re "{{") (str.to.re "||"))) (re.inter (re.union (str.to.re "}}}") (str.to.re "~")) (re.union (str.to.re "00") (str.to.re "1")))))) (re.union (re.inter (re.union (re.inter (re.union (str.to.re "2") (str.to.re "3")) (re.union (str.to.re "4") (str.to.re "555"))) (re.inter (re.union (str.to.re "666") (str.to.re "77")) (re.union (str.to.re "88") (str.to.re "9")))) (re.union (re.inter (re.union (str.to.re "a") (str.to.re "bbb")) (re.union (str.to.re "c") (str.to.re "d"))) (re.inter (re.union (str.to.re "e") (str.to.re "f")) (re.union (str.to.re "ggg") (str.to.re "hhh"))))) (re.inter (re.union (re.inter (re.union (str.to.re "iii") (str.to.re "jj")) (re.union (str.to.re "kkk") (str.to.re "lll"))) (re.inter (re.union (str.to.re "mm") (str.to.re "nnn")) (re.union (str.to.re "o") (str.to.re "p")))) (re.union (re.inter (re.union (str.to.re "qqq") (str.to.re "rrr")) (re.union (str.to.re "ss") (str.to.re "ttt"))) (re.inter (re.union (str.to.re "uu") (str.to.re "vv")) (re.union (str.to.re "ww") (str.to.re "xxx")))))))) (re.++ (re.union (re.inter (re.union (re.inter (re.union (re.inter (re.union (str.to.re "yyy") (str.to.re "zzz")) (re.union (str.to.re "AA") (str.to.re "B"))) (re.inter (re.union (str.to.re "CC") (str.to.re "DDD")) (re.union (str.to.re "E") (str.to.re "FF")))) (re.union (re.inter (re.union (str.to.re "GGG") (str.to.re "HHH")) (re.union (str.to.re "II") (str.to.re "J"))) (re.inter (re.union (str.to.re "K") (str.to.re "L")) (re.union (str.to.re "MMM") (str.to.re "NN"))))) (re.inter (re.union (re.inter (re.union (str.to.re "O") (str.to.re "PPP")) (re.union (str.to.re "Q") (str.to.re "RR"))) (re.inter (re.union (str.to.re "S") (str.to.re "TT")) (re.union (str.to.re "UU") (str.to.re "V")))) (re.union (re.inter (re.union (str.to.re "W") (str.to.re "X")) (re.union (str.to.re "YYY") (str.to.re "Z"))) (re.inter (re.union (str.to.re "!") (str.to.re "'''")) (re.union (str.to.re "###") (str.to.re "$$$")))))) (re.union (re.inter (re.union (re.inter (re.union (str.to.re "%%%") (str.to.re "&&&")) (re.union (str.to.re "'") (str.to.re "("))) (re.inter (re.union (str.to.re ")") (str.to.re "***")) (re.union (str.to.re "+") (str.to.re ",,,")))) (re.union (re.inter (re.union (str.to.re "---") (str.to.re ".")) (re.union (str.to.re "//") (str.to.re ":"))) (re.inter (re.union (str.to.re ";;") (str.to.re "<")) (re.union (str.to.re "=") (str.to.re ">>>"))))) (re.inter (re.union (re.inter (re.union (str.to.re "?") (str.to.re "@")) (re.union (str.to.re "[") (str.to.re "\\\\\\"))) (re.inter (re.union (str.to.re "]") (str.to.re "^^")) (re.union (str.to.re "_") (str.to.re "```")))) (re.union (re.inter (re.union (str.to.re "{") (str.to.re "|||")) (re.union (str.to.re "}") (str.to.re "~~~"))) (re.inter (re.union (str.to.re "00") (str.to.re "111")) (re.union (str.to.re "2") (str.to.re "33"))))))) (re.inter (re.union (re.inter (re.union (re.inter (re.union (str.to.re "4") (str.to.re "5")) (re.union (str.to.re "6") (str.to.re "777"))) (re.inter (re.union (str.to.re "88") (str.to.re "99")) (re.union (str.to.re "aa") (str.to.re "b")))) (re.union (re.inter (re.union (str.to.re "c") (str.to.re "ddd")) (re.union (str.to.re "ee") (str.to.re "f"))) (re.inter (re.union (str.to.re "ggg") (str.to.re "h")) (re.union (str.to.re "iii") (str.to.re "jj"))))) (re.inter (re.union (re.inter (re.union (str.to.re "k") (str.to.re "ll")) (re.union (str.to.re "mm") (str.to.re "nnn"))) (re.inter (re.union (str.to.re "oo") (str.to.re "ppp")) (re.union (str.to.re "q") (str.to.re "rrr")))) (re.union (re.inter (re.union (str.to.re "sss") (str.to.re "t")) (re.union (str.to.re "u") (str.to.re "vvv"))) (re.inter (re.union (str.to.re "w") (str.to.re "x")) (re.union (str.to.re "yy") (str.to.re "zzz")))))) (re.union (re.inter (re.union (re.inter (re.union (str.to.re "AA") (str.to.re "B")) (re.union (str.to.re "CCC") (str.to.re "DD"))) (re.inter (re.union (str.to.re "EEE") (str.to.re "F")) (re.union (str.to.re "G") (str.to.re "HH")))) (re.union (re.inter (re.union (str.to.re "III") (str.to.re "JJ")) (re.union (str.to.re "KKK") (str.to.re "LLL"))) (re.inter (re.union (str.to.re "MM") (str.to.re "NNN")) (re.union (str.to.re "OO") (str.to.re "PP"))))) (re.inter (re.union (re.inter (re.union (str.to.re "QQQ") (str.to.re "RR")) (re.union (str.to.re "S") (str.to.re "TTT"))) (re.inter (re.union (str.to.re "UUU") (str.to.re "V")) (re.union (str.to.re "WW") (str.to.re "XXX")))) (re.union (re.inter (re.union (str.to.re "Y") (str.to.re "ZZ")) (re.union (str.to.re "!!!") (str.to.re "'"))) (re.inter (re.union (str.to.re "###") (str.to.re "$$")) (re.union (str.to.re "%") (str.to.re "&")))))))) (re.union (re.inter (re.union (re.inter (re.union (re.inter (re.union (str.to.re "''") (str.to.re "((")) (re.union (str.to.re ")))") (str.to.re "**"))) (re.inter (re.union (str.to.re "+++") (str.to.re ",,")) (re.union (str.to.re "---") (str.to.re "...")))) (re.union (re.inter (re.union (str.to.re "///") (str.to.re ":")) (re.union (str.to.re ";;;") (str.to.re "<<"))) (re.inter (re.union (str.to.re "==") (str.to.re ">>>")) (re.union (str.to.re "??") (str.to.re "@@@"))))) (re.inter (re.union (re.inter (re.union (str.to.re "[") (str.to.re "\\")) (re.union (str.to.re "]]]") (str.to.re "^"))) (re.inter (re.union (str.to.re "___") (str.to.re "``")) (re.union (str.to.re "{") (str.to.re "|")))) (re.union (re.inter (re.union (str.to.re "}") (str.to.re "~~~")) (re.union (str.to.re "00") (str.to.re "11"))) (re.inter (re.union (str.to.re "222") (str.to.re "333")) (re.union (str.to.re "444") (str.to.re "55")))))) (re.union (re.inter (re.union (re.inter (re.union (str.to.re "6") (str.to.re "77")) (re.union (str.to.re "888") (str.to.re "999"))) (re.inter (re.union (str.to.re "aa") (str.to.re "bbb")) (re.union (str.to.re "ccc") (str.to.re "d")))) (re.union (re.inter (re.union (str.to.re "e") (str.to.re "ff")) (re.union (str.to.re "g") (str.to.re "hh"))) (re.inter (re.union (str.to.re "iii") (str.to.re "j")) (re.union (str.to.re "kk") (str.to.re "lll"))))) (re.inter (re.union (re.inter (re.union (str.to.re "mm") (str.to.re "nnn")) (re.union (str.to.re "ooo") (str.to.re "p"))) (re.inter (re.union (str.to.re "q") (str.to.re "rr")) (re.union (str.to.re "ss") (str.to.re "tt")))) (re.union (re.inter (re.union (str.to.re "uu") (str.to.re "v")) (re.union (str.to.re "ww") (str.to.re "x"))) (re.inter (re.union (str.to.re "yyy") (str.to.re "zzz")) (re.union (str.to.re "A") (str.to.re "BBB"))))))) (re.inter (re.union (re.inter (re.union (re.inter (re.union (str.to.re "C") (str.to.re "D")) (re.union (str.to.re "EE") (str.to.re "FFF"))) (re.inter (re.union (str.to.re "GG") (str.to.re "HH")) (re.union (str.to.re "I") (str.to.re "J")))) (re.union (re.inter (re.union (str.to.re "K") (str.to.re "LLL")) (re.union (str.to.re "M") (str.to.re "NNN"))) (re.inter (re.union (str.to.re "OOO") (str.to.re "PPP")) (re.union (str.to.re "Q") (str.to.re "R"))))) (re.inter (re.union (re.inter (re.union (str.to.re "S") (str.to.re "TTT")) (re.union (str.to.re "UUU") (str.to.re "V"))) (re.inter (re.union (str.to.re "WW") (str.to.re "XX")) (re.union (str.to.re "YYY") (str.to.re "Z")))) (re.union (re.inter (re.union (str.to.re "!") (str.to.re "''")) (re.union (str.to.re "##") (str.to.re "$$$"))) (re.inter (re.union (str.to.re "%") (str.to.re "&")) (re.union (str.to.re "''") (str.to.re "((")))))) (re.union (re.inter (re.union (re.inter (re.union (str.to.re ")") (str.to.re "**")) (re.union (str.to.re "+") (str.to.re ",,,"))) (re.inter (re.union (str.to.re "---") (str.to.re "...")) (re.union (str.to.re "///") (str.to.re "::")))) (re.union (re.inter (re.union (str.to.re ";") (str.to.re "<")) (re.union (str.to.re "==") (str.to.re ">"))) (re.inter (re.union (str.to.re "?") (str.to.re "@")) (re.union (str.to.re "[") (str.to.re "\\\\\\"))))) (re.inter (re.union (re.inter (re.union (str.to.re "]]") (str.to.re "^^^")) (re.union (str.to.re "__") (str.to.re "``"))) (re.inter (re.union (str.to.re "{{{") (str.to.re "|")) (re.union (str.to.re "}}}") (str.to.re "~~~")))) (re.union (re.inter (re.union (str.to.re "000") (str.to.re "111")) (re.union (str.to.re "22") (str.to.re "333"))) (re.inter (re.union (str.to.re "444") (str.to.re "55")) (re.union (str.to.re "666") (str.to.re "77"))))))))))))
(check-sat)
